NAME : pairopt
TYPE : ACVRP
DIMENSION : 8
EDGE_WEIGHT_TYPE : EXPLICIT
EDGE_WEIGHT_FORMAT : FULL_MATRIX
CAPACITY : 1024
VEHICLES : 2
EDGE_WEIGHT_SECTION
100000 -100000 -100000 100000 100000 100000 100000 100000 
100000 100000 1000000 2969 2858 3293 2332 2663 
100000 1000000 100000 -156 -168 50 451 1664 
0 0 0 100000 148 256 287 401 
0 0 0 148 100000 323 402 501 
0 0 0 256 323 100000 528 429 
0 0 0 287 402 528 100000 232 
0 0 0 401 501 429 232 100000 
DEMAND_SECTION
1 0
2 0
3 0
4 310
5 37
6 305
7 266
8 446
DEPOT_SECTION
1
EOF